
set MATERIALS := SALT FUEL;

set METHODS := SALTING PLOWING;


#Data_deterministic

param: SummerMaterialCost := 
SALT 20
FUEL 70;

param: MaterialSalvagePrice :=
SALT 15
FUEL 65;

param: FleetCapacity := 5000;

param MaterialRequirement:
      SALTING  PLOWING :=
SALT     1        0
FUEL     1        1 ;



#Data_stochastic

param WinterMaterialCost :=
SALT 30
FUEL 73;

param: TruckCost := 110;

param: Efficiency :=
SALTING 1.2
PLOWING 1;

param: TruckdayRequirement := 3500;
